10
2147483647 44 68 59 8 47 82 70 50 82 
44 2147483647 75 89 58 47 95 70 50 59 
68 75 2147483647 68 56 30 1 25 33 10 
59 89 68 2147483647 76 42 22 13 64 23 
8 58 56 76 2147483647 9 1 15 42 7 
47 47 30 42 9 2147483647 4 25 73 55 
82 95 1 22 1 4 2147483647 87 80 100 
70 70 25 13 15 25 87 2147483647 23 76 
50 50 33 64 42 73 80 23 2147483647 12 
82 59 10 23 7 55 100 76 12 2147483647 
